
Gurobi 11.0.3 (linux64) logging started Mon Aug 25 13:22:21 2025

Set parameter LogFile to value "/home/yihong/Coding/OR_SUC/SUC_epstheta_results_bigM100000_thread4/case24_ieee_rts_theta0.1_epsilon0.1_gurobi_seed50000_num_gen100_N_WDR50_load_scaling_factor1_ori_eps_T3quadra_cost_bc1.03.txt"
Set parameter TimeLimit to value 3600
Gurobi Optimizer version 11.0.3 build v11.0.3rc0 (linux64 - "Ubuntu 20.04.6 LTS")

CPU model: AMD EPYC 7532 32-Core Processor, instruction set [SSE2|AVX|AVX2]
Thread count: 64 physical cores, 128 logical processors, using up to 4 threads

Academic license 2399124 - for non-commercial use only - registered to yi___@ed.ac.uk
Optimize a model with 6709 rows, 3771 columns and 162814 nonzeros
Model fingerprint: 0x095908eb
Model has 300 quadratic constraints
Variable types: 3471 continuous, 300 integer (300 binary)
Coefficient statistics:
  Matrix range     [3e-04, 3e+03]
  QMatrix range    [2e-03, 8e-03]
  QLMatrix range   [2e-01, 6e+01]
  Objective range  [1e+00, 1e+00]
  Bounds range     [1e+00, 1e+00]
  RHS range        [1e+00, 8e+03]
Presolve removed 5708 rows and 1801 columns
Presolve time: 0.03s
Presolved: 1001 rows, 1970 columns, 6508 nonzeros
Presolved model has 300 quadratic constraint(s)
Variable types: 1670 continuous, 300 integer (300 binary)

Root relaxation: objective 3.301436e+03, 686 iterations, 0.01 seconds (0.01 work units)

    Nodes    |    Current Node    |     Objective Bounds      |     Work
 Expl Unexpl |  Obj  Depth IntInf | Incumbent    BestBd   Gap | It/Node Time

     0     0 3301.43609    0    6          - 3301.43609      -     -    0s
     0     0 4147.80046    0   90          - 4147.80046      -     -    0s
     0     0 23240.3900    0  132          - 23240.3900      -     -    0s
     0     0 49495.7644    0  138          - 49495.7644      -     -    0s
     0     0 51440.5682    0   36          - 51440.5682      -     -    0s
     0     0 51440.7654    0   39          - 51440.7654      -     -    0s
H    0     0                    66728.171937 51440.7654  22.9%     -    0s
     0     0 51442.4172    0   30 66728.1719 51442.4172  22.9%     -    0s
     0     0 51443.1273    0   30 66728.1719 51443.1273  22.9%     -    0s
     0     0 51443.1290    0   30 66728.1719 51443.1290  22.9%     -    0s
H    0     0                    51459.206554 51443.1290  0.03%     -    0s

Cutting planes:
  Gomory: 3
  Implied bound: 114
  MIR: 42
  Flow cover: 162
  RLT: 3

Explored 1 nodes (2967 simplex iterations) in 0.36 seconds (0.21 work units)
Thread count was 4 (of 128 available processors)

Solution count 2: 51459.2 66728.2 

Optimal solution found (tolerance 1.00e-03)
Best objective 5.145920655407e+04, best bound 5.144312898883e+04, gap 0.0312%

Gurobi 11.0.3 (linux64) logging started Mon Aug 25 13:22:22 2025

Set parameter LogFile to value "/home/yihong/Coding/OR_SUC/SUC_epstheta_results_bigM100000_thread4/case24_ieee_rts_theta0.1_epsilon0.1_gurobi_seed50000_num_gen100_N_WDR50_load_scaling_factor1_ori_eps_T3quadra_cost_bc1.03.txt"
Set parameter TimeLimit to value 3600
Gurobi Optimizer version 11.0.3 build v11.0.3rc0 (linux64 - "Ubuntu 20.04.6 LTS")

CPU model: AMD EPYC 7532 32-Core Processor, instruction set [SSE2|AVX|AVX2]
Thread count: 64 physical cores, 128 logical processors, using up to 4 threads

Academic license 2399124 - for non-commercial use only - registered to yi___@ed.ac.uk
Optimize a model with 17005 rows, 3772 columns and 1276951 nonzeros
Model fingerprint: 0x23517fe6
Model has 301 quadratic constraints
Variable types: 3472 continuous, 300 integer (300 binary)
Coefficient statistics:
  Matrix range     [3e-04, 3e+03]
  QMatrix range    [2e-03, 5e+01]
  QLMatrix range   [2e-01, 6e+01]
  Objective range  [1e+00, 1e+00]
  Bounds range     [1e-01, 1e+00]
  RHS range        [5e-02, 5e+04]
  QRHS range       [5e+00, 5e+00]
Presolve removed 5129 rows and 1530 columns
Presolve time: 1.27s
Presolved: 12178 rows, 2543 columns, 258150 nonzeros
Presolved model has 300 quadratic constraint(s)
Presolved model has 1 bilinear constraint(s)
Warning: Model contains variables with very large bounds participating
         in product terms.
         Presolve was not able to compute smaller bounds for these variables.
         Consider bounding these variables or reformulating the model.


Solving non-convex MIQCP

Variable types: 2239 continuous, 304 integer (304 binary)

Root relaxation: objective 0.000000e+00, 1348 iterations, 0.21 seconds (0.59 work units)

    Nodes    |    Current Node    |     Objective Bounds      |     Work
 Expl Unexpl |  Obj  Depth IntInf | Incumbent    BestBd   Gap | It/Node Time

     0     0    0.00000    0    6          -    0.00000      -     -    3s
     0     0    0.00000    0    2          -    0.00000      -     -    3s
     0     0    0.00000    0    1          -    0.00000      -     -    4s
H    0     0                       0.0348693    0.00000   100%     -  326s
H    0     0                       0.0242087    0.00000   100%     -  326s
H    0     0                       0.0236468    0.00000   100%     -  326s
     0     0    0.02365    0    1    0.02365    0.02365  0.00%     -  326s

Cutting planes:
  Gomory: 1
  Implied bound: 3
  MIR: 2
  RLT: 3
  PSD: 1

Explored 1 nodes (1566 simplex iterations) in 326.86 seconds (162.36 work units)
Thread count was 4 (of 128 available processors)

Solution count 3: 0.0236468 0.0242087 0.0348693 

Optimal solution found (tolerance 1.00e-03)
Best objective 2.364675470510e-02, best bound 2.364675470510e-02, gap 0.0000%
